This is Ipopt version 3.10.0, running with linear solver ma27.

Number of nonzeros in equality constraint Jacobian...:        0
Number of nonzeros in inequality constraint Jacobian.:       48
Number of nonzeros in Lagrangian Hessian.............:        0

Total number of variables............................:        6
                     variables with only lower bounds:        3
                variables with lower and upper bounds:        3
                     variables with only upper bounds:        0
Total number of equality constraints.................:        0
Total number of inequality constraints...............:        8
        inequality constraints with only lower bounds:        0
   inequality constraints with lower and upper bounds:        0
        inequality constraints with only upper bounds:        8

iter    objective    inf_pr   inf_du lg(mu)  ||d||  lg(rg) alpha_du alpha_pr  ls
   0  3.8311014e+00 3.27e+00 1.00e+00   0.0 0.00e+00    -  0.00e+00 0.00e+00   0
   1  4.9914392e+00 1.23e+00 5.78e+00  -0.4 2.29e+00    -  8.17e-01 1.00e+00f  1
   2  5.4423359e+00 9.49e-01 2.48e+00  -0.2 1.05e+00    -  8.24e-01 3.90e-01h  1
   3  6.4988703e+00 7.41e-01 6.96e+00  -0.7 2.08e+00    -  5.68e-01 5.06e-01h  1
   4  7.7208388e+00 5.10e-01 3.65e+00  -1.2 1.84e+00    -  6.06e-01 2.94e-01h  1
   5  1.2594205e+01 1.30e-01 8.25e+00  -1.3 1.97e+00    -  1.00e+00 8.55e-01h  1
   6  1.2973239e+01 1.72e-01 9.02e+01  -0.0 3.31e+00    -  1.00e+00 4.08e-01f  1
   7  1.2931903e+01 3.67e-02 1.15e+02  -0.0 1.24e+00    -  4.64e-01 9.59e-01f  1
   8  1.3785282e+01 0.00e+00 7.63e+00   0.2 9.09e-01    -  1.00e+00 1.00e+00f  1
   9  1.2239456e+01 1.34e-02 1.47e+01  -0.2 1.80e+00    -  9.40e-01 1.00e+00f  1
iter    objective    inf_pr   inf_du lg(mu)  ||d||  lg(rg) alpha_du alpha_pr  ls
  10  1.0579202e+01 1.85e-02 1.56e+01  -0.5 7.26e-01    -  9.95e-01 9.72e-01h  1
  11  8.3247563e+00 3.68e-01 3.37e+01  -1.2 1.45e+00    -  1.00e+00 7.11e-01f  1
  12  8.3264544e+00 4.72e-01 2.03e+01  -1.1 8.48e-01    -  9.13e-01 3.15e-01h  1
  13  5.8475466e+00 2.72e+01 9.94e+02  -1.4 2.10e+00    -  6.86e-01 5.57e-01f  1
  14  5.8522962e+00 2.44e+01 8.41e+02  -1.5 8.10e+00    -  1.06e-01 8.05e-02h  1
  15  5.8693556e+00 2.10e+01 6.90e+02  -1.5 1.37e+01    -  1.73e-01 1.92e-02h  1
  16  5.8693630e+00 2.10e+01 6.89e+02  -1.5 5.01e+01    -  7.64e-03 1.43e-06h 13
  17  5.8693655e+00 2.10e+01 3.05e+03  -1.5 5.90e+01    -  8.76e-01 5.70e-07h 13
